WARNING: for repeatability, setting FPU to use double precision
============================[ Problem Statistics ]=============================
|                                                                             |
|  Number of variables:           330                                         |
|  Number of clauses:            1480                                         |
|  Parse time:                   0.00 s                                       |
|                                                                             |
============================[ Search Statistics ]==============================
| Conflicts |          ORIGINAL         |          LEARNT          | Progress |
|           |    Vars  Clauses Literals |    Limit  Clauses Lit/Cl |          |
===============================================================================
|       100 |     330     1480     4900 |      542      100      5 |  0.001 % |
===============================================================================
restarts              : 2
conflicts             : 117            (117117 /sec)
decisions             : 529            (0.00 % random) (529530 /sec)
propagations          : 3431           (3434434 /sec)
conflict literals     : 678            (1.74 % deleted)
Memory used           : 6.00 MB
CPU time              : 0.000999 s

SATISFIABLE
